objective value:                             -6235.32
x23                                                 1 	(obj:-538.226)
x44                                                 1 	(obj:-133.422)
x57                                                 1 	(obj:-193.143)
x59                                                 1 	(obj:-345.565)
x77                                                 1 	(obj:-771.663)
x110                                                1 	(obj:-89.2444)
x148                                                1 	(obj:-191.385)
x205                                                1 	(obj:-394.75)
x230                                                1 	(obj:-1112.52)
x254                                                1 	(obj:-407.164)
x275                                                1 	(obj:-93.9391)
x283                                                1 	(obj:-190.478)
x292                                                1 	(obj:-124.658)
x355                                                1 	(obj:-257.573)
x373                                                1 	(obj:-83.8396)
x382                                                1 	(obj:-809.116)
x415                                                1 	(obj:-476.482)
x457                                                1 	(obj:-22.1519)
